NAME : tsp_23_sol.txt
COMMENT : OR-Tools Guided Local Search
TYPE : TOUR
DIMENSION : 50
COST : 5333
STATUS : ROUTING_SUCCESS
GAP : 0.00% (Reference Solution)
TOUR_SECTION
1
25
11
37
22
40
12
35
13
27
16
10
26
45
42
9
46
6
41
29
48
49
50
18
31
7
20
17
32
34
47
30
21
28
38
8
44
14
3
33
5
23
15
43
24
4
36
2
39
19
-1
